certificates/rado_a10_c292_N30.cnf
c Rad2 upper bound instance: x1 + 10*x2 - x3 = 292, interval [1,30]
p cnf 30 152
1 9 30 0
-1 -9 -30 0
2 10 30 0
-2 -10 -30 0
1 3 29 0
-1 -3 -29 0
3 11 30 0
-3 -11 -30 0
2 4 29 0
-2 -4 -29 0
4 12 30 0
-4 -12 -30 0
3 5 29 0
-3 -5 -29 0
5 13 30 0
-5 -13 -30 0
4 6 29 0
-4 -6 -29 0
6 14 30 0
-6 -14 -30 0
5 7 29 0
-5 -7 -29 0
7 15 30 0
-7 -15 -30 0
6 8 29 0
-6 -8 -29 0
8 16 30 0
-8 -16 -30 0
7 9 29 0
-7 -9 -29 0
9 17 30 0
-9 -17 -30 0
8 10 29 0
-8 -10 -29 0
10 18 30 0
-10 -18 -30 0
9 11 29 0
-9 -11 -29 0
11 19 30 0
-11 -19 -30 0
10 12 29 0
-10 -12 -29 0
12 20 30 0
-12 -20 -30 0
1 13 28 0
-1 -13 -28 0
11 13 29 0
-11 -13 -29 0
13 21 30 0
-13 -21 -30 0
2 14 28 0
-2 -14 -28 0
12 14 29 0
-12 -14 -29 0
14 22 30 0
-14 -22 -30 0
3 15 28 0
-3 -15 -28 0
13 15 29 0
-13 -15 -29 0
15 23 30 0
-15 -23 -30 0
4 16 28 0
-4 -16 -28 0
14 16 29 0
-14 -16 -29 0
16 24 30 0
-16 -24 -30 0
5 17 28 0
-5 -17 -28 0
15 17 29 0
-15 -17 -29 0
17 25 30 0
-17 -25 -30 0
6 18 28 0
-6 -18 -28 0
16 18 29 0
-16 -18 -29 0
18 26 30 0
-18 -26 -30 0
7 19 28 0
-7 -19 -28 0
17 19 29 0
-17 -19 -29 0
19 27 30 0
-19 -27 -30 0
8 20 28 0
-8 -20 -28 0
18 20 29 0
-18 -20 -29 0
20 28 30 0
-20 -28 -30 0
9 21 28 0
-9 -21 -28 0
19 21 29 0
-19 -21 -29 0
21 29 30 0
-21 -29 -30 0
10 22 28 0
-10 -22 -28 0
20 22 29 0
-20 -22 -29 0
22 30 0
-22 -30 0
1 23 27 0
-1 -23 -27 0
11 23 28 0
-11 -23 -28 0
21 23 29 0
-21 -23 -29 0
2 24 27 0
-2 -24 -27 0
12 24 28 0
-12 -24 -28 0
22 24 29 0
-22 -24 -29 0
3 25 27 0
-3 -25 -27 0
13 25 28 0
-13 -25 -28 0
23 25 29 0
-23 -25 -29 0
4 26 27 0
-4 -26 -27 0
14 26 28 0
-14 -26 -28 0
24 26 29 0
-24 -26 -29 0
5 27 0
-5 -27 0
15 27 28 0
-15 -27 -28 0
25 27 29 0
-25 -27 -29 0
6 27 28 0
-6 -27 -28 0
16 28 0
-16 -28 0
26 28 29 0
-26 -28 -29 0
7 27 29 0
-7 -27 -29 0
17 28 29 0
-17 -28 -29 0
27 29 0
-27 -29 0
8 27 30 0
-8 -27 -30 0
18 28 30 0
-18 -28 -30 0
28 29 30 0
-28 -29 -30 0
