certificates/rado_a10_c292_N30.drat
-29 -30 0
-30 0
22 0
29 0
-27 0
-20 0
-24 0
5 0
19 0
8 0
12 0
28 0
16 0
2 0
-3 0
-7 0
-17 0
-21 0
-6 0
-10 0
-14 0
0
